p wcnf 102 51 52 
1 18 12 0 
1 -57 4 0 
1 91 -39 0 
1 -81 25 0 
1 -57 -72 0 
1 89 -101 0 
1 -88 65 0 
1 57 22 0 
1 -86 7 0 
1 -22 -54 0 
1 -81 -87 0 
1 -71 -58 0 
1 19 69 0 
1 42 69 0 
1 -34 -3 0 
1 37 -22 0 
1 -89 -75 0 
1 55 44 0 
1 67 -14 0 
1 -58 -36 0 
1 -100 48 0 
1 -66 -90 0 
1 -77 10 0 
1 -51 87 0 
1 -86 90 0 
1 -21 -83 0 
1 -82 -81 0 
1 -50 -14 0 
1 -21 67 0 
1 -101 28 0 
1 -78 -24 0 
1 -77 -34 0 
1 14 -63 0 
1 5 72 0 
1 -64 -94 0 
1 -21 38 0 
1 -74 -23 0 
1 43 56 0 
1 -67 55 0 
1 -83 87 0 
1 -87 -69 0 
1 51 25 0 
1 -19 -3 0 
1 -4 -25 0 
1 62 79 0 
1 -72 56 0 
1 -92 -43 0 
1 -37 100 0 
1 -31 22 0 
1 -20 48 0 
1 12 91 0 
